0010000111001101001001110100110010000010101110011100110101001011110001000010000111000100001001001011010100111100010100011101101110000101000011011100011010111101011011110101100101101000011011110110001000010000101101100111000101001101000001010100000100001100000110100100010101101001100011111000000100111010001010001110001111000010101010001100011100001101001110000011110011111001010001001111100101000001100011111111011110001010011010000011011110100110010010110000001011101000101101101101011011110110011111011101101111010111000010100010010100010110011111111111010010111100001100110001110100011100010101001110101010011111101011011000011100001000110000100110110011011111110110100111101011010000111001100101110111000101001001111000001101100110010110111100100011100011001010100011011000011001110010110011000011110011001100110010010101010000